NAME: n30q40F.tsp, 30 nodes, semilla 555
COMMENT: Problema aleatorio de norma euclidea
DIMENSION: 30
CAPACITY: 40
EDGE_WEIGHT_TYPE: EUC_2D
NODE_COORD_SECTION
1   0.0000   0.0000
2 -190.0000 352.0000
3 -499.0000 -350.0000
4 -55.0000 313.0000
5 -219.0000 340.0000
6 -193.0000 -388.0000
7 279.0000 -430.0000
8 -47.0000 -281.0000
9 270.0000 -80.0000
10 169.0000 -240.0000
11 -291.0000 -261.0000
12 328.0000 -142.0000
13 117.0000 313.0000
14 -169.0000 -87.0000
15 474.0000 378.0000
16 -238.0000 -472.0000
17  40.0000  71.0000
18 342.0000 -415.0000
19 -414.0000 202.0000
20  13.0000 173.0000
21 -365.0000 175.0000
22 -393.0000 -492.0000
23 360.0000 417.0000
24 -229.0000 -41.0000
25 -282.0000 -25.0000
26 -433.0000 -437.0000
27 416.0000  56.0000
28 244.0000 -447.0000
29 356.0000 157.0000
30 -403.0000 -275.0000
DISPLAY_DATA_SECTION:
 1  250  250
 2  155  426
 3    0   75
 4  222  406
 5  140  420
 6  153   56
 7  389   35
 8  226  109
 9  385  210
10  334  130
11  104  119
12  414  179
13  308  406
14  165  206
15  487  439
16  131   14
17  270  285
18  421   42
19   43  351
20  256  336
21   67  337
22   53    4
23  430  458
24  135  229
25  109  237
26   33   31
27  458  278
28  372   26
29  428  328
30   48  112
DEMAND_SECTION
1 -9
2 5
3 6
4 -5
5 6
6 -5
7 -3
8 2
9 -7
10 -1
11 -9
12 -1
13 5
14 4
15 -8
16 -2
17 -9
18 1
19 1
20 0
21 4
22 -2
23 1
24 -1
25 10
26 -2
27 9
28 10
29 1
30 -1
EOF